c n orig vars 130
p cnf 567 1814
131 -1 0
131 -2 0
-131 1 2 0
132 -3 0
132 -4 0
-132 3 4 0
133 -5 0
133 -6 0
-133 5 6 0
134 -7 0
134 -8 0
-134 7 8 0
135 -9 0
135 -10 0
-135 9 10 0
136 -11 0
136 -12 0
-136 11 12 0
137 -13 0
137 -14 0
-137 13 14 0
138 -15 0
138 -16 0
-138 15 16 0
139 -17 0
139 -18 0
-139 17 18 0
140 -19 0
140 -20 0
-140 19 20 0
141 -21 0
141 -22 0
-141 21 22 0
142 -23 0
142 -24 0
-142 23 24 0
143 -25 0
143 -26 0
-143 25 26 0
144 -27 0
144 -28 0
-144 27 28 0
145 -29 0
145 -30 0
-145 29 30 0
146 -31 0
146 -32 0
-146 31 32 0
147 -33 0
147 -34 0
-147 33 34 0
148 -35 0
148 -36 0
-148 35 36 0
149 -37 0
149 -38 0
-149 37 38 0
150 -39 0
150 -40 0
-150 39 40 0
-151 131 0
-151 132 0
-151 133 0
-151 134 0
-151 135 0
-151 136 0
-151 137 0
-151 138 0
-151 139 0
-151 140 0
-151 141 0
-151 142 0
-151 143 0
-151 144 0
-151 145 0
-151 146 0
-151 147 0
-151 148 0
-151 149 0
-151 150 0
151 -131 -132 -133 -134 -135 -136 -137 -138 -139 -140 -141 -142 -143 -144 -145 -146 -147 -148 -149 -150 0
-151 0
152 -41 0
152 -51 0
152 -61 0
152 -71 0
152 -81 0
152 -91 0
152 -101 0
152 -111 0
152 -121 0
-152 41 51 61 71 81 91 101 111 121 0
153 -42 0
153 -52 0
153 -62 0
153 -72 0
153 -82 0
153 -92 0
153 -102 0
153 -112 0
153 -122 0
-153 42 52 62 72 82 92 102 112 122 0
154 -43 0
154 -53 0
154 -63 0
154 -73 0
154 -83 0
154 -93 0
154 -103 0
154 -113 0
154 -123 0
-154 43 53 63 73 83 93 103 113 123 0
155 -44 0
155 -54 0
155 -64 0
155 -74 0
155 -84 0
155 -94 0
155 -104 0
155 -114 0
155 -124 0
-155 44 54 64 74 84 94 104 114 124 0
156 -45 0
156 -55 0
156 -65 0
156 -75 0
156 -85 0
156 -95 0
156 -105 0
156 -115 0
156 -125 0
-156 45 55 65 75 85 95 105 115 125 0
157 -46 0
157 -56 0
157 -66 0
157 -76 0
157 -86 0
157 -96 0
157 -106 0
157 -116 0
157 -126 0
-157 46 56 66 76 86 96 106 116 126 0
158 -47 0
158 -57 0
158 -67 0
158 -77 0
158 -87 0
158 -97 0
158 -107 0
158 -117 0
158 -127 0
-158 47 57 67 77 87 97 107 117 127 0
159 -48 0
159 -58 0
159 -68 0
159 -78 0
159 -88 0
159 -98 0
159 -108 0
159 -118 0
159 -128 0
-159 48 58 68 78 88 98 108 118 128 0
160 -49 0
160 -59 0
160 -69 0
160 -79 0
160 -89 0
160 -99 0
160 -109 0
160 -119 0
160 -129 0
-160 49 59 69 79 89 99 109 119 129 0
161 -50 0
161 -60 0
161 -70 0
161 -80 0
161 -90 0
161 -100 0
161 -110 0
161 -120 0
161 -130 0
-161 50 60 70 80 90 100 110 120 130 0
162 41 0
162 42 0
-162 -41 -42 0
163 41 0
163 43 0
-163 -41 -43 0
164 41 0
164 44 0
-164 -41 -44 0
165 41 0
165 45 0
-165 -41 -45 0
166 41 0
166 46 0
-166 -41 -46 0
167 41 0
167 47 0
-167 -41 -47 0
168 41 0
168 48 0
-168 -41 -48 0
169 41 0
169 49 0
-169 -41 -49 0
170 41 0
170 50 0
-170 -41 -50 0
171 42 0
171 43 0
-171 -42 -43 0
172 42 0
172 44 0
-172 -42 -44 0
173 42 0
173 45 0
-173 -42 -45 0
174 42 0
174 46 0
-174 -42 -46 0
175 42 0
175 47 0
-175 -42 -47 0
176 42 0
176 48 0
-176 -42 -48 0
177 42 0
177 49 0
-177 -42 -49 0
178 42 0
178 50 0
-178 -42 -50 0
179 43 0
179 44 0
-179 -43 -44 0
180 43 0
180 45 0
-180 -43 -45 0
181 43 0
181 46 0
-181 -43 -46 0
182 43 0
182 47 0
-182 -43 -47 0
183 43 0
183 48 0
-183 -43 -48 0
184 43 0
184 49 0
-184 -43 -49 0
185 43 0
185 50 0
-185 -43 -50 0
186 44 0
186 45 0
-186 -44 -45 0
187 44 0
187 46 0
-187 -44 -46 0
188 44 0
188 47 0
-188 -44 -47 0
189 44 0
189 48 0
-189 -44 -48 0
190 44 0
190 49 0
-190 -44 -49 0
191 44 0
191 50 0
-191 -44 -50 0
192 45 0
192 46 0
-192 -45 -46 0
193 45 0
193 47 0
-193 -45 -47 0
194 45 0
194 48 0
-194 -45 -48 0
195 45 0
195 49 0
-195 -45 -49 0
196 45 0
196 50 0
-196 -45 -50 0
197 46 0
197 47 0
-197 -46 -47 0
198 46 0
198 48 0
-198 -46 -48 0
199 46 0
199 49 0
-199 -46 -49 0
200 46 0
200 50 0
-200 -46 -50 0
201 47 0
201 48 0
-201 -47 -48 0
202 47 0
202 49 0
-202 -47 -49 0
203 47 0
203 50 0
-203 -47 -50 0
204 48 0
204 49 0
-204 -48 -49 0
205 48 0
205 50 0
-205 -48 -50 0
206 49 0
206 50 0
-206 -49 -50 0
207 51 0
207 52 0
-207 -51 -52 0
208 51 0
208 53 0
-208 -51 -53 0
209 51 0
209 54 0
-209 -51 -54 0
210 51 0
210 55 0
-210 -51 -55 0
211 51 0
211 56 0
-211 -51 -56 0
212 51 0
212 57 0
-212 -51 -57 0
213 51 0
213 58 0
-213 -51 -58 0
214 51 0
214 59 0
-214 -51 -59 0
215 51 0
215 60 0
-215 -51 -60 0
216 52 0
216 53 0
-216 -52 -53 0
217 52 0
217 54 0
-217 -52 -54 0
218 52 0
218 55 0
-218 -52 -55 0
219 52 0
219 56 0
-219 -52 -56 0
220 52 0
220 57 0
-220 -52 -57 0
221 52 0
221 58 0
-221 -52 -58 0
222 52 0
222 59 0
-222 -52 -59 0
223 52 0
223 60 0
-223 -52 -60 0
224 53 0
224 54 0
-224 -53 -54 0
225 53 0
225 55 0
-225 -53 -55 0
226 53 0
226 56 0
-226 -53 -56 0
227 53 0
227 57 0
-227 -53 -57 0
228 53 0
228 58 0
-228 -53 -58 0
229 53 0
229 59 0
-229 -53 -59 0
230 53 0
230 60 0
-230 -53 -60 0
231 54 0
231 55 0
-231 -54 -55 0
232 54 0
232 56 0
-232 -54 -56 0
233 54 0
233 57 0
-233 -54 -57 0
234 54 0
234 58 0
-234 -54 -58 0
235 54 0
235 59 0
-235 -54 -59 0
236 54 0
236 60 0
-236 -54 -60 0
237 55 0
237 56 0
-237 -55 -56 0
238 55 0
238 57 0
-238 -55 -57 0
239 55 0
239 58 0
-239 -55 -58 0
240 55 0
240 59 0
-240 -55 -59 0
241 55 0
241 60 0
-241 -55 -60 0
242 56 0
242 57 0
-242 -56 -57 0
243 56 0
243 58 0
-243 -56 -58 0
244 56 0
244 59 0
-244 -56 -59 0
245 56 0
245 60 0
-245 -56 -60 0
246 57 0
246 58 0
-246 -57 -58 0
247 57 0
247 59 0
-247 -57 -59 0
248 57 0
248 60 0
-248 -57 -60 0
249 58 0
249 59 0
-249 -58 -59 0
250 58 0
250 60 0
-250 -58 -60 0
251 59 0
251 60 0
-251 -59 -60 0
252 61 0
252 62 0
-252 -61 -62 0
253 61 0
253 63 0
-253 -61 -63 0
254 61 0
254 64 0
-254 -61 -64 0
255 61 0
255 65 0
-255 -61 -65 0
256 61 0
256 66 0
-256 -61 -66 0
257 61 0
257 67 0
-257 -61 -67 0
258 61 0
258 68 0
-258 -61 -68 0
259 61 0
259 69 0
-259 -61 -69 0
260 61 0
260 70 0
-260 -61 -70 0
261 62 0
261 63 0
-261 -62 -63 0
262 62 0
262 64 0
-262 -62 -64 0
263 62 0
263 65 0
-263 -62 -65 0
264 62 0
264 66 0
-264 -62 -66 0
265 62 0
265 67 0
-265 -62 -67 0
266 62 0
266 68 0
-266 -62 -68 0
267 62 0
267 69 0
-267 -62 -69 0
268 62 0
268 70 0
-268 -62 -70 0
269 63 0
269 64 0
-269 -63 -64 0
270 63 0
270 65 0
-270 -63 -65 0
271 63 0
271 66 0
-271 -63 -66 0
272 63 0
272 67 0
-272 -63 -67 0
273 63 0
273 68 0
-273 -63 -68 0
274 63 0
274 69 0
-274 -63 -69 0
275 63 0
275 70 0
-275 -63 -70 0
276 64 0
276 65 0
-276 -64 -65 0
277 64 0
277 66 0
-277 -64 -66 0
278 64 0
278 67 0
-278 -64 -67 0
279 64 0
279 68 0
-279 -64 -68 0
280 64 0
280 69 0
-280 -64 -69 0
281 64 0
281 70 0
-281 -64 -70 0
282 65 0
282 66 0
-282 -65 -66 0
283 65 0
283 67 0
-283 -65 -67 0
284 65 0
284 68 0
-284 -65 -68 0
285 65 0
285 69 0
-285 -65 -69 0
286 65 0
286 70 0
-286 -65 -70 0
287 66 0
287 67 0
-287 -66 -67 0
288 66 0
288 68 0
-288 -66 -68 0
289 66 0
289 69 0
-289 -66 -69 0
290 66 0
290 70 0
-290 -66 -70 0
291 67 0
291 68 0
-291 -67 -68 0
292 67 0
292 69 0
-292 -67 -69 0
293 67 0
293 70 0
-293 -67 -70 0
294 68 0
294 69 0
-294 -68 -69 0
295 68 0
295 70 0
-295 -68 -70 0
296 69 0
296 70 0
-296 -69 -70 0
297 71 0
297 72 0
-297 -71 -72 0
298 71 0
298 73 0
-298 -71 -73 0
299 71 0
299 74 0
-299 -71 -74 0
300 71 0
300 75 0
-300 -71 -75 0
301 71 0
301 76 0
-301 -71 -76 0
302 71 0
302 77 0
-302 -71 -77 0
303 71 0
303 78 0
-303 -71 -78 0
304 71 0
304 79 0
-304 -71 -79 0
305 71 0
305 80 0
-305 -71 -80 0
306 72 0
306 73 0
-306 -72 -73 0
307 72 0
307 74 0
-307 -72 -74 0
308 72 0
308 75 0
-308 -72 -75 0
309 72 0
309 76 0
-309 -72 -76 0
310 72 0
310 77 0
-310 -72 -77 0
311 72 0
311 78 0
-311 -72 -78 0
312 72 0
312 79 0
-312 -72 -79 0
313 72 0
313 80 0
-313 -72 -80 0
314 73 0
314 74 0
-314 -73 -74 0
315 73 0
315 75 0
-315 -73 -75 0
316 73 0
316 76 0
-316 -73 -76 0
317 73 0
317 77 0
-317 -73 -77 0
318 73 0
318 78 0
-318 -73 -78 0
319 73 0
319 79 0
-319 -73 -79 0
320 73 0
320 80 0
-320 -73 -80 0
321 74 0
321 75 0
-321 -74 -75 0
322 74 0
322 76 0
-322 -74 -76 0
323 74 0
323 77 0
-323 -74 -77 0
324 74 0
324 78 0
-324 -74 -78 0
325 74 0
325 79 0
-325 -74 -79 0
326 74 0
326 80 0
-326 -74 -80 0
327 75 0
327 76 0
-327 -75 -76 0
328 75 0
328 77 0
-328 -75 -77 0
329 75 0
329 78 0
-329 -75 -78 0
330 75 0
330 79 0
-330 -75 -79 0
331 75 0
331 80 0
-331 -75 -80 0
332 76 0
332 77 0
-332 -76 -77 0
333 76 0
333 78 0
-333 -76 -78 0
334 76 0
334 79 0
-334 -76 -79 0
335 76 0
335 80 0
-335 -76 -80 0
336 77 0
336 78 0
-336 -77 -78 0
337 77 0
337 79 0
-337 -77 -79 0
338 77 0
338 80 0
-338 -77 -80 0
339 78 0
339 79 0
-339 -78 -79 0
340 78 0
340 80 0
-340 -78 -80 0
341 79 0
341 80 0
-341 -79 -80 0
342 81 0
342 82 0
-342 -81 -82 0
343 81 0
343 83 0
-343 -81 -83 0
344 81 0
344 84 0
-344 -81 -84 0
345 81 0
345 85 0
-345 -81 -85 0
346 81 0
346 86 0
-346 -81 -86 0
347 81 0
347 87 0
-347 -81 -87 0
348 81 0
348 88 0
-348 -81 -88 0
349 81 0
349 89 0
-349 -81 -89 0
350 81 0
350 90 0
-350 -81 -90 0
351 82 0
351 83 0
-351 -82 -83 0
352 82 0
352 84 0
-352 -82 -84 0
353 82 0
353 85 0
-353 -82 -85 0
354 82 0
354 86 0
-354 -82 -86 0
355 82 0
355 87 0
-355 -82 -87 0
356 82 0
356 88 0
-356 -82 -88 0
357 82 0
357 89 0
-357 -82 -89 0
358 82 0
358 90 0
-358 -82 -90 0
359 83 0
359 84 0
-359 -83 -84 0
360 83 0
360 85 0
-360 -83 -85 0
361 83 0
361 86 0
-361 -83 -86 0
362 83 0
362 87 0
-362 -83 -87 0
363 83 0
363 88 0
-363 -83 -88 0
364 83 0
364 89 0
-364 -83 -89 0
365 83 0
365 90 0
-365 -83 -90 0
366 84 0
366 85 0
-366 -84 -85 0
367 84 0
367 86 0
-367 -84 -86 0
368 84 0
368 87 0
-368 -84 -87 0
369 84 0
369 88 0
-369 -84 -88 0
370 84 0
370 89 0
-370 -84 -89 0
371 84 0
371 90 0
-371 -84 -90 0
372 85 0
372 86 0
-372 -85 -86 0
373 85 0
373 87 0
-373 -85 -87 0
374 85 0
374 88 0
-374 -85 -88 0
375 85 0
375 89 0
-375 -85 -89 0
376 85 0
376 90 0
-376 -85 -90 0
377 86 0
377 87 0
-377 -86 -87 0
378 86 0
378 88 0
-378 -86 -88 0
379 86 0
379 89 0
-379 -86 -89 0
380 86 0
380 90 0
-380 -86 -90 0
381 87 0
381 88 0
-381 -87 -88 0
382 87 0
382 89 0
-382 -87 -89 0
383 87 0
383 90 0
-383 -87 -90 0
384 88 0
384 89 0
-384 -88 -89 0
385 88 0
385 90 0
-385 -88 -90 0
386 89 0
386 90 0
-386 -89 -90 0
387 91 0
387 92 0
-387 -91 -92 0
388 91 0
388 93 0
-388 -91 -93 0
389 91 0
389 94 0
-389 -91 -94 0
390 91 0
390 95 0
-390 -91 -95 0
391 91 0
391 96 0
-391 -91 -96 0
392 91 0
392 97 0
-392 -91 -97 0
393 91 0
393 98 0
-393 -91 -98 0
394 91 0
394 99 0
-394 -91 -99 0
395 91 0
395 100 0
-395 -91 -100 0
396 92 0
396 93 0
-396 -92 -93 0
397 92 0
397 94 0
-397 -92 -94 0
398 92 0
398 95 0
-398 -92 -95 0
399 92 0
399 96 0
-399 -92 -96 0
400 92 0
400 97 0
-400 -92 -97 0
401 92 0
401 98 0
-401 -92 -98 0
402 92 0
402 99 0
-402 -92 -99 0
403 92 0
403 100 0
-403 -92 -100 0
404 93 0
404 94 0
-404 -93 -94 0
405 93 0
405 95 0
-405 -93 -95 0
406 93 0
406 96 0
-406 -93 -96 0
407 93 0
407 97 0
-407 -93 -97 0
408 93 0
408 98 0
-408 -93 -98 0
409 93 0
409 99 0
-409 -93 -99 0
410 93 0
410 100 0
-410 -93 -100 0
411 94 0
411 95 0
-411 -94 -95 0
412 94 0
412 96 0
-412 -94 -96 0
413 94 0
413 97 0
-413 -94 -97 0
414 94 0
414 98 0
-414 -94 -98 0
415 94 0
415 99 0
-415 -94 -99 0
416 94 0
416 100 0
-416 -94 -100 0
417 95 0
417 96 0
-417 -95 -96 0
418 95 0
418 97 0
-418 -95 -97 0
419 95 0
419 98 0
-419 -95 -98 0
420 95 0
420 99 0
-420 -95 -99 0
421 95 0
421 100 0
-421 -95 -100 0
422 96 0
422 97 0
-422 -96 -97 0
423 96 0
423 98 0
-423 -96 -98 0
424 96 0
424 99 0
-424 -96 -99 0
425 96 0
425 100 0
-425 -96 -100 0
426 97 0
426 98 0
-426 -97 -98 0
427 97 0
427 99 0
-427 -97 -99 0
428 97 0
428 100 0
-428 -97 -100 0
429 98 0
429 99 0
-429 -98 -99 0
430 98 0
430 100 0
-430 -98 -100 0
431 99 0
431 100 0
-431 -99 -100 0
432 101 0
432 102 0
-432 -101 -102 0
433 101 0
433 103 0
-433 -101 -103 0
434 101 0
434 104 0
-434 -101 -104 0
435 101 0
435 105 0
-435 -101 -105 0
436 101 0
436 106 0
-436 -101 -106 0
437 101 0
437 107 0
-437 -101 -107 0
438 101 0
438 108 0
-438 -101 -108 0
439 101 0
439 109 0
-439 -101 -109 0
440 101 0
440 110 0
-440 -101 -110 0
441 102 0
441 103 0
-441 -102 -103 0
442 102 0
442 104 0
-442 -102 -104 0
443 102 0
443 105 0
-443 -102 -105 0
444 102 0
444 106 0
-444 -102 -106 0
445 102 0
445 107 0
-445 -102 -107 0
446 102 0
446 108 0
-446 -102 -108 0
447 102 0
447 109 0
-447 -102 -109 0
448 102 0
448 110 0
-448 -102 -110 0
449 103 0
449 104 0
-449 -103 -104 0
450 103 0
450 105 0
-450 -103 -105 0
451 103 0
451 106 0
-451 -103 -106 0
452 103 0
452 107 0
-452 -103 -107 0
453 103 0
453 108 0
-453 -103 -108 0
454 103 0
454 109 0
-454 -103 -109 0
455 103 0
455 110 0
-455 -103 -110 0
456 104 0
456 105 0
-456 -104 -105 0
457 104 0
457 106 0
-457 -104 -106 0
458 104 0
458 107 0
-458 -104 -107 0
459 104 0
459 108 0
-459 -104 -108 0
460 104 0
460 109 0
-460 -104 -109 0
461 104 0
461 110 0
-461 -104 -110 0
462 105 0
462 106 0
-462 -105 -106 0
463 105 0
463 107 0
-463 -105 -107 0
464 105 0
464 108 0
-464 -105 -108 0
465 105 0
465 109 0
-465 -105 -109 0
466 105 0
466 110 0
-466 -105 -110 0
467 106 0
467 107 0
-467 -106 -107 0
468 106 0
468 108 0
-468 -106 -108 0
469 106 0
469 109 0
-469 -106 -109 0
470 106 0
470 110 0
-470 -106 -110 0
471 107 0
471 108 0
-471 -107 -108 0
472 107 0
472 109 0
-472 -107 -109 0
473 107 0
473 110 0
-473 -107 -110 0
474 108 0
474 109 0
-474 -108 -109 0
475 108 0
475 110 0
-475 -108 -110 0
476 109 0
476 110 0
-476 -109 -110 0
477 111 0
477 112 0
-477 -111 -112 0
478 111 0
478 113 0
-478 -111 -113 0
479 111 0
479 114 0
-479 -111 -114 0
480 111 0
480 115 0
-480 -111 -115 0
481 111 0
481 116 0
-481 -111 -116 0
482 111 0
482 117 0
-482 -111 -117 0
483 111 0
483 118 0
-483 -111 -118 0
484 111 0
484 119 0
-484 -111 -119 0
485 111 0
485 120 0
-485 -111 -120 0
486 112 0
486 113 0
-486 -112 -113 0
487 112 0
487 114 0
-487 -112 -114 0
488 112 0
488 115 0
-488 -112 -115 0
489 112 0
489 116 0
-489 -112 -116 0
490 112 0
490 117 0
-490 -112 -117 0
491 112 0
491 118 0
-491 -112 -118 0
492 112 0
492 119 0
-492 -112 -119 0
493 112 0
493 120 0
-493 -112 -120 0
494 113 0
494 114 0
-494 -113 -114 0
495 113 0
495 115 0
-495 -113 -115 0
496 113 0
496 116 0
-496 -113 -116 0
497 113 0
497 117 0
-497 -113 -117 0
498 113 0
498 118 0
-498 -113 -118 0
499 113 0
499 119 0
-499 -113 -119 0
500 113 0
500 120 0
-500 -113 -120 0
501 114 0
501 115 0
-501 -114 -115 0
502 114 0
502 116 0
-502 -114 -116 0
503 114 0
503 117 0
-503 -114 -117 0
504 114 0
504 118 0
-504 -114 -118 0
505 114 0
505 119 0
-505 -114 -119 0
506 114 0
506 120 0
-506 -114 -120 0
507 115 0
507 116 0
-507 -115 -116 0
508 115 0
508 117 0
-508 -115 -117 0
509 115 0
509 118 0
-509 -115 -118 0
510 115 0
510 119 0
-510 -115 -119 0
511 115 0
511 120 0
-511 -115 -120 0
512 116 0
512 117 0
-512 -116 -117 0
513 116 0
513 118 0
-513 -116 -118 0
514 116 0
514 119 0
-514 -116 -119 0
515 116 0
515 120 0
-515 -116 -120 0
516 117 0
516 118 0
-516 -117 -118 0
517 117 0
517 119 0
-517 -117 -119 0
518 117 0
518 120 0
-518 -117 -120 0
519 118 0
519 119 0
-519 -118 -119 0
520 118 0
520 120 0
-520 -118 -120 0
521 119 0
521 120 0
-521 -119 -120 0
522 121 0
522 122 0
-522 -121 -122 0
523 121 0
523 123 0
-523 -121 -123 0
524 121 0
524 124 0
-524 -121 -124 0
525 121 0
525 125 0
-525 -121 -125 0
526 121 0
526 126 0
-526 -121 -126 0
527 121 0
527 127 0
-527 -121 -127 0
528 121 0
528 128 0
-528 -121 -128 0
529 121 0
529 129 0
-529 -121 -129 0
530 121 0
530 130 0
-530 -121 -130 0
531 122 0
531 123 0
-531 -122 -123 0
532 122 0
532 124 0
-532 -122 -124 0
533 122 0
533 125 0
-533 -122 -125 0
534 122 0
534 126 0
-534 -122 -126 0
535 122 0
535 127 0
-535 -122 -127 0
536 122 0
536 128 0
-536 -122 -128 0
537 122 0
537 129 0
-537 -122 -129 0
538 122 0
538 130 0
-538 -122 -130 0
539 123 0
539 124 0
-539 -123 -124 0
540 123 0
540 125 0
-540 -123 -125 0
541 123 0
541 126 0
-541 -123 -126 0
542 123 0
542 127 0
-542 -123 -127 0
543 123 0
543 128 0
-543 -123 -128 0
544 123 0
544 129 0
-544 -123 -129 0
545 123 0
545 130 0
-545 -123 -130 0
546 124 0
546 125 0
-546 -124 -125 0
547 124 0
547 126 0
-547 -124 -126 0
548 124 0
548 127 0
-548 -124 -127 0
549 124 0
549 128 0
-549 -124 -128 0
550 124 0
550 129 0
-550 -124 -129 0
551 124 0
551 130 0
-551 -124 -130 0
552 125 0
552 126 0
-552 -125 -126 0
553 125 0
553 127 0
-553 -125 -127 0
554 125 0
554 128 0
-554 -125 -128 0
555 125 0
555 129 0
-555 -125 -129 0
556 125 0
556 130 0
-556 -125 -130 0
557 126 0
557 127 0
-557 -126 -127 0
558 126 0
558 128 0
-558 -126 -128 0
559 126 0
559 129 0
-559 -126 -129 0
560 126 0
560 130 0
-560 -126 -130 0
561 127 0
561 128 0
-561 -127 -128 0
562 127 0
562 129 0
-562 -127 -129 0
563 127 0
563 130 0
-563 -127 -130 0
564 128 0
564 129 0
-564 -128 -129 0
565 128 0
565 130 0
-565 -128 -130 0
566 129 0
566 130 0
-566 -129 -130 0
-567 152 0
-567 153 0
-567 154 0
-567 155 0
-567 156 0
-567 157 0
-567 158 0
-567 159 0
-567 160 0
-567 161 0
-567 162 0
-567 163 0
-567 164 0
-567 165 0
-567 166 0
-567 167 0
-567 168 0
-567 169 0
-567 170 0
-567 171 0
-567 172 0
-567 173 0
-567 174 0
-567 175 0
-567 176 0
-567 177 0
-567 178 0
-567 179 0
-567 180 0
-567 181 0
-567 182 0
-567 183 0
-567 184 0
-567 185 0
-567 186 0
-567 187 0
-567 188 0
-567 189 0
-567 190 0
-567 191 0
-567 192 0
-567 193 0
-567 194 0
-567 195 0
-567 196 0
-567 197 0
-567 198 0
-567 199 0
-567 200 0
-567 201 0
-567 202 0
-567 203 0
-567 204 0
-567 205 0
-567 206 0
-567 207 0
-567 208 0
-567 209 0
-567 210 0
-567 211 0
-567 212 0
-567 213 0
-567 214 0
-567 215 0
-567 216 0
-567 217 0
-567 218 0
-567 219 0
-567 220 0
-567 221 0
-567 222 0
-567 223 0
-567 224 0
-567 225 0
-567 226 0
-567 227 0
-567 228 0
-567 229 0
-567 230 0
-567 231 0
-567 232 0
-567 233 0
-567 234 0
-567 235 0
-567 236 0
-567 237 0
-567 238 0
-567 239 0
-567 240 0
-567 241 0
-567 242 0
-567 243 0
-567 244 0
-567 245 0
-567 246 0
-567 247 0
-567 248 0
-567 249 0
-567 250 0
-567 251 0
-567 252 0
-567 253 0
-567 254 0
-567 255 0
-567 256 0
-567 257 0
-567 258 0
-567 259 0
-567 260 0
-567 261 0
-567 262 0
-567 263 0
-567 264 0
-567 265 0
-567 266 0
-567 267 0
-567 268 0
-567 269 0
-567 270 0
-567 271 0
-567 272 0
-567 273 0
-567 274 0
-567 275 0
-567 276 0
-567 277 0
-567 278 0
-567 279 0
-567 280 0
-567 281 0
-567 282 0
-567 283 0
-567 284 0
-567 285 0
-567 286 0
-567 287 0
-567 288 0
-567 289 0
-567 290 0
-567 291 0
-567 292 0
-567 293 0
-567 294 0
-567 295 0
-567 296 0
-567 297 0
-567 298 0
-567 299 0
-567 300 0
-567 301 0
-567 302 0
-567 303 0
-567 304 0
-567 305 0
-567 306 0
-567 307 0
-567 308 0
-567 309 0
-567 310 0
-567 311 0
-567 312 0
-567 313 0
-567 314 0
-567 315 0
-567 316 0
-567 317 0
-567 318 0
-567 319 0
-567 320 0
-567 321 0
-567 322 0
-567 323 0
-567 324 0
-567 325 0
-567 326 0
-567 327 0
-567 328 0
-567 329 0
-567 330 0
-567 331 0
-567 332 0
-567 333 0
-567 334 0
-567 335 0
-567 336 0
-567 337 0
-567 338 0
-567 339 0
-567 340 0
-567 341 0
-567 342 0
-567 343 0
-567 344 0
-567 345 0
-567 346 0
-567 347 0
-567 348 0
-567 349 0
-567 350 0
-567 351 0
-567 352 0
-567 353 0
-567 354 0
-567 355 0
-567 356 0
-567 357 0
-567 358 0
-567 359 0
-567 360 0
-567 361 0
-567 362 0
-567 363 0
-567 364 0
-567 365 0
-567 366 0
-567 367 0
-567 368 0
-567 369 0
-567 370 0
-567 371 0
-567 372 0
-567 373 0
-567 374 0
-567 375 0
-567 376 0
-567 377 0
-567 378 0
-567 379 0
-567 380 0
-567 381 0
-567 382 0
-567 383 0
-567 384 0
-567 385 0
-567 386 0
-567 387 0
-567 388 0
-567 389 0
-567 390 0
-567 391 0
-567 392 0
-567 393 0
-567 394 0
-567 395 0
-567 396 0
-567 397 0
-567 398 0
-567 399 0
-567 400 0
-567 401 0
-567 402 0
-567 403 0
-567 404 0
-567 405 0
-567 406 0
-567 407 0
-567 408 0
-567 409 0
-567 410 0
-567 411 0
-567 412 0
-567 413 0
-567 414 0
-567 415 0
-567 416 0
-567 417 0
-567 418 0
-567 419 0
-567 420 0
-567 421 0
-567 422 0
-567 423 0
-567 424 0
-567 425 0
-567 426 0
-567 427 0
-567 428 0
-567 429 0
-567 430 0
-567 431 0
-567 432 0
-567 433 0
-567 434 0
-567 435 0
-567 436 0
-567 437 0
-567 438 0
-567 439 0
-567 440 0
-567 441 0
-567 442 0
-567 443 0
-567 444 0
-567 445 0
-567 446 0
-567 447 0
-567 448 0
-567 449 0
-567 450 0
-567 451 0
-567 452 0
-567 453 0
-567 454 0
-567 455 0
-567 456 0
-567 457 0
-567 458 0
-567 459 0
-567 460 0
-567 461 0
-567 462 0
-567 463 0
-567 464 0
-567 465 0
-567 466 0
-567 467 0
-567 468 0
-567 469 0
-567 470 0
-567 471 0
-567 472 0
-567 473 0
-567 474 0
-567 475 0
-567 476 0
-567 477 0
-567 478 0
-567 479 0
-567 480 0
-567 481 0
-567 482 0
-567 483 0
-567 484 0
-567 485 0
-567 486 0
-567 487 0
-567 488 0
-567 489 0
-567 490 0
-567 491 0
-567 492 0
-567 493 0
-567 494 0
-567 495 0
-567 496 0
-567 497 0
-567 498 0
-567 499 0
-567 500 0
-567 501 0
-567 502 0
-567 503 0
-567 504 0
-567 505 0
-567 506 0
-567 507 0
-567 508 0
-567 509 0
-567 510 0
-567 511 0
-567 512 0
-567 513 0
-567 514 0
-567 515 0
-567 516 0
-567 517 0
-567 518 0
-567 519 0
-567 520 0
-567 521 0
-567 522 0
-567 523 0
-567 524 0
-567 525 0
-567 526 0
-567 527 0
-567 528 0
-567 529 0
-567 530 0
-567 531 0
-567 532 0
-567 533 0
-567 534 0
-567 535 0
-567 536 0
-567 537 0
-567 538 0
-567 539 0
-567 540 0
-567 541 0
-567 542 0
-567 543 0
-567 544 0
-567 545 0
-567 546 0
-567 547 0
-567 548 0
-567 549 0
-567 550 0
-567 551 0
-567 552 0
-567 553 0
-567 554 0
-567 555 0
-567 556 0
-567 557 0
-567 558 0
-567 559 0
-567 560 0
-567 561 0
-567 562 0
-567 563 0
-567 564 0
-567 565 0
-567 566 0
567 -152 -153 -154 -155 -156 -157 -158 -159 -160 -161 -162 -163 -164 -165 -166 -167 -168 -169 -170 -171 -172 -173 -174 -175 -176 -177 -178 -179 -180 -181 -182 -183 -184 -185 -186 -187 -188 -189 -190 -191 -192 -193 -194 -195 -196 -197 -198 -199 -200 -201 -202 -203 -204 -205 -206 -207 -208 -209 -210 -211 -212 -213 -214 -215 -216 -217 -218 -219 -220 -221 -222 -223 -224 -225 -226 -227 -228 -229 -230 -231 -232 -233 -234 -235 -236 -237 -238 -239 -240 -241 -242 -243 -244 -245 -246 -247 -248 -249 -250 -251 -252 -253 -254 -255 -256 -257 -258 -259 -260 -261 -262 -263 -264 -265 -266 -267 -268 -269 -270 -271 -272 -273 -274 -275 -276 -277 -278 -279 -280 -281 -282 -283 -284 -285 -286 -287 -288 -289 -290 -291 -292 -293 -294 -295 -296 -297 -298 -299 -300 -301 -302 -303 -304 -305 -306 -307 -308 -309 -310 -311 -312 -313 -314 -315 -316 -317 -318 -319 -320 -321 -322 -323 -324 -325 -326 -327 -328 -329 -330 -331 -332 -333 -334 -335 -336 -337 -338 -339 -340 -341 -342 -343 -344 -345 -346 -347 -348 -349 -350 -351 -352 -353 -354 -355 -356 -357 -358 -359 -360 -361 -362 -363 -364 -365 -366 -367 -368 -369 -370 -371 -372 -373 -374 -375 -376 -377 -378 -379 -380 -381 -382 -383 -384 -385 -386 -387 -388 -389 -390 -391 -392 -393 -394 -395 -396 -397 -398 -399 -400 -401 -402 -403 -404 -405 -406 -407 -408 -409 -410 -411 -412 -413 -414 -415 -416 -417 -418 -419 -420 -421 -422 -423 -424 -425 -426 -427 -428 -429 -430 -431 -432 -433 -434 -435 -436 -437 -438 -439 -440 -441 -442 -443 -444 -445 -446 -447 -448 -449 -450 -451 -452 -453 -454 -455 -456 -457 -458 -459 -460 -461 -462 -463 -464 -465 -466 -467 -468 -469 -470 -471 -472 -473 -474 -475 -476 -477 -478 -479 -480 -481 -482 -483 -484 -485 -486 -487 -488 -489 -490 -491 -492 -493 -494 -495 -496 -497 -498 -499 -500 -501 -502 -503 -504 -505 -506 -507 -508 -509 -510 -511 -512 -513 -514 -515 -516 -517 -518 -519 -520 -521 -522 -523 -524 -525 -526 -527 -528 -529 -530 -531 -532 -533 -534 -535 -536 -537 -538 -539 -540 -541 -542 -543 -544 -545 -546 -547 -548 -549 -550 -551 -552 -553 -554 -555 -556 -557 -558 -559 -560 -561 -562 -563 -564 -565 -566 0
-567 0
